
Log started (V11.0.0) Sun May 18 05:09:19 2008

Tried aggregator 1 time.
Reduced MIP has 520 rows, 10001 columns, and 20020 nonzeros.
Presolve time =    0.06 sec.
Clique table members: 500.
MIP emphasis: balance optimality and feasibility.
MIP search method: dynamic search.
Parallel mode: none, using 1 thread.
Root relaxation solution time =    0.50 sec.

        Nodes                                         Cuts/
   Node  Left     Objective  IInf  Best Integer     Best Node    ItCnt     Gap

*     0+    0                        10634.0000      430.6235      737   95.95%
*     0+    0                          472.0000      430.6235      737    8.77%
      0     0      431.0000    38      472.0000      Fract: 6      759    8.69%
*     0+    0                          461.0000      431.0000      759    6.51%
      0     0      431.0000    38      461.0000     Covers: 1      775    6.51%
*     0+    0                          456.0000      431.0000      775    5.48%
      0     0      431.0125    44      456.0000     Covers: 2      829    5.48%
*     0+    0                          453.0000      431.0125      829    4.85%
*     0+    0                          452.0000      431.0125      829    4.64%
*     0+    0                          451.0000      431.0125      829    4.43%
*     0+    0                          444.0000      431.0125      829    2.93%
      0     2      431.0125    44      444.0000      431.0125      829    2.93%
*    60+   59                          443.0000      431.0236     2390    2.70%
*    70+   69                          441.0000      431.0236     2778    2.26%
    100   101      432.0000    27      441.0000      431.0236     3934    2.26%
    200   201      432.0000    26      441.0000      431.0236     8652    2.26%
    300   291      432.0000    43      441.0000      431.0236    15234    2.26%
    400   363      432.0228    41      441.0000      431.0236    21330    2.26%
*   496+  274                          440.0000      434.3469    29150    1.28%
*   496+  182                          438.0000      434.3469    29150    0.83%
*   496+  121                          437.0000      434.3469    29150    0.61%
    500   122      435.0000    33      437.0000      435.0000    29171    0.46%
    600   124    infeasible            437.0000      435.0000    33882    0.46%
    700   107      436.0000    29      437.0000      435.0000    40280    0.46%
    800   202      436.0000    30      437.0000      435.0000    41825    0.46%
    900   278      436.0000    26      437.0000      435.0000    44347    0.46%
   1000   304      436.0000    32      437.0000      435.0000    56193    0.46%
Elapsed time =  64.19 sec. (tree size =  2.97 MB, solutions = 13)
   1100   327      436.0000    50      437.0000      435.0000    70693    0.46%
   1200   406      435.2351    84      437.0000      435.0000    78513    0.46%
   1300   506      436.0000    17      437.0000      435.0000    79862    0.46%
   1400   598      436.0000    32      437.0000      435.0000    84540    0.46%
   1500   649    infeasible            437.0000      435.0000    97789    0.46%
   1600   667      436.0000    38      437.0000      435.0000   112002    0.46%
   1700   746    infeasible            437.0000      435.0000   116818    0.46%
   1800   831      436.0000    18      437.0000      435.0000   121458    0.46%
   1900   916      436.0000    22      437.0000      435.0000   128339    0.46%
   2000   971      436.0000    30      437.0000      435.0000   136339    0.46%
Elapsed time = 117.11 sec. (tree size = 10.40 MB, solutions = 13)
   2100  1044      436.0000    29      437.0000      435.0000   145852    0.46%
   2200  1084      436.0000    20      437.0000      435.0000   164522    0.46%
   2300  1130      436.0000    33      437.0000      435.0000   180492    0.46%
   2400  1187      436.0000    36      437.0000      435.0000   189501    0.46%
*  2496+   23                          436.0000      435.0000   192189    0.23%
   2500    18    infeasible            436.0000      435.0000   194663    0.23%

Cover cuts applied:  147
Mixed integer rounding cuts applied:  6
Gomory fractional cuts applied:  2

Solution pool: 14 solutions saved.

MIP - Integer optimal solution:  Objective = 4.3600000000e+002
Solution time =  155.00 sec.  Iterations = 205833  Nodes = 2519


Incumbent solution
Variable Name           Solution Value
Cmax                        436.000000
X_1_5                         1.000000
X_2_5                         1.000000
X_3_19                        1.000000
X_4_8                         1.000000
X_5_8                         1.000000
X_6_13                        1.000000
X_7_18                        1.000000
X_8_5                         1.000000
X_9_3                         1.000000
X_10_5                        1.000000
X_11_12                       1.000000
X_12_11                       1.000000
X_13_15                       1.000000
X_14_13                       1.000000
X_15_18                       1.000000
X_16_4                        1.000000
X_17_18                       1.000000
X_18_19                       1.000000
X_19_10                       1.000000
X_20_5                        1.000000
X_21_13                       1.000000
X_22_5                        1.000000
X_23_19                       1.000000
X_24_13                       1.000000
X_25_13                       1.000000
X_26_15                       1.000000
X_27_19                       1.000000
X_28_13                       1.000000
X_29_1                        1.000000
X_30_1                        1.000000
X_31_18                       1.000000
X_32_3                        1.000000
X_33_4                        1.000000
X_34_5                        1.000000
X_35_3                        1.000000
X_36_12                       1.000000
X_37_19                       1.000000
X_38_11                       1.000000
X_39_3                        1.000000
X_40_5                        1.000000
X_41_8                        1.000000
X_42_9                        1.000000
X_43_11                       1.000000
X_44_5                        1.000000
X_45_16                       1.000000
X_46_9                        1.000000
X_47_4                        1.000000
X_48_20                       1.000000
X_49_12                       1.000000
X_50_13                       1.000000
X_51_8                        1.000000
X_52_13                       1.000000
X_53_13                       1.000000
X_54_18                       1.000000
X_55_5                        1.000000
X_56_3                        1.000000
X_57_15                       1.000000
X_58_5                        1.000000
X_59_4                        1.000000
X_60_13                       1.000000
X_61_15                       1.000000
X_62_20                       1.000000
X_63_19                       1.000000
X_64_15                       1.000000
X_65_1                        1.000000
X_66_5                        1.000000
X_67_20                       1.000000
X_68_13                       1.000000
X_69_18                       1.000000
X_70_5                        1.000000
X_71_11                       1.000000
X_72_19                       1.000000
X_73_5                        1.000000
X_74_13                       1.000000
X_75_5                        1.000000
X_76_18                       1.000000
X_77_4                        1.000000
X_78_19                       1.000000
X_79_18                       1.000000
X_80_13                       1.000000
X_81_19                       1.000000
X_82_9                        1.000000
X_83_5                        1.000000
X_84_16                       1.000000
X_85_13                       1.000000
X_86_5                        1.000000
X_87_13                       1.000000
X_88_15                       1.000000
X_89_3                        1.000000
X_90_19                       1.000000
X_91_3                        1.000000
X_92_13                       1.000000
X_93_16                       1.000000
X_94_15                       1.000000
X_95_17                       1.000000
X_96_4                        1.000000
X_97_19                       1.000000
X_98_13                       1.000000
X_99_13                       1.000000
X_100_5                       1.000000
X_101_8                       1.000000
X_102_5                       1.000000
X_103_14                      1.000000
X_104_5                       1.000000
X_105_5                       1.000000
X_106_5                       1.000000
X_107_15                      1.000000
X_108_5                       1.000000
X_109_18                      1.000000
X_110_19                      1.000000
X_111_8                       1.000000
X_112_9                       1.000000
X_113_5                       1.000000
X_114_19                      1.000000
X_115_20                      1.000000
X_116_2                       1.000000
X_117_5                       1.000000
X_118_5                       1.000000
X_119_9                       1.000000
X_120_20                      1.000000
X_121_18                      1.000000
X_122_7                       1.000000
X_123_20                      1.000000
X_124_18                      1.000000
X_125_19                      1.000000
X_126_13                      1.000000
X_127_8                       1.000000
X_128_13                      1.000000
X_129_6                       1.000000
X_130_15                      1.000000
X_131_5                       1.000000
X_132_17                      1.000000
X_133_17                      1.000000
X_134_13                      1.000000
X_135_18                      1.000000
X_136_4                       1.000000
X_137_19                      1.000000
X_138_19                      1.000000
X_139_13                      1.000000
X_140_13                      1.000000
X_141_13                      1.000000
X_142_20                      1.000000
X_143_2                       1.000000
X_144_5                       1.000000
X_145_4                       1.000000
X_146_13                      1.000000
X_147_8                       1.000000
X_148_20                      1.000000
X_149_12                      1.000000
X_150_5                       1.000000
X_151_5                       1.000000
X_152_13                      1.000000
X_153_5                       1.000000
X_154_5                       1.000000
X_155_14                      1.000000
X_156_12                      1.000000
X_157_6                       1.000000
X_158_6                       1.000000
X_159_12                      1.000000
X_160_18                      1.000000
X_161_9                       1.000000
X_162_5                       1.000000
X_163_15                      1.000000
X_164_13                      1.000000
X_165_5                       1.000000
X_166_11                      1.000000
X_167_5                       1.000000
X_168_3                       1.000000
X_169_8                       1.000000
X_170_13                      1.000000
X_171_5                       1.000000
X_172_5                       1.000000
X_173_19                      1.000000
X_174_5                       1.000000
X_175_5                       1.000000
X_176_18                      1.000000
X_177_15                      1.000000
X_178_18                      1.000000
X_179_5                       1.000000
X_180_5                       1.000000
X_181_2                       1.000000
X_182_13                      1.000000
X_183_3                       1.000000
X_184_5                       1.000000
X_185_19                      1.000000
X_186_13                      1.000000
X_187_5                       1.000000
X_188_18                      1.000000
X_189_9                       1.000000
X_190_4                       1.000000
X_191_13                      1.000000
X_192_20                      1.000000
X_193_5                       1.000000
X_194_15                      1.000000
X_195_13                      1.000000
X_196_19                      1.000000
X_197_4                       1.000000
X_198_1                       1.000000
X_199_13                      1.000000
X_200_5                       1.000000
X_201_19                      1.000000
X_202_13                      1.000000
X_203_19                      1.000000
X_204_8                       1.000000
X_205_5                       1.000000
X_206_15                      1.000000
X_207_20                      1.000000
X_208_13                      1.000000
X_209_2                       1.000000
X_210_5                       1.000000
X_211_19                      1.000000
X_212_8                       1.000000
X_213_14                      1.000000
X_214_15                      1.000000
X_215_20                      1.000000
X_216_4                       1.000000
X_217_13                      1.000000
X_218_19                      1.000000
X_219_20                      1.000000
X_220_17                      1.000000
X_221_5                       1.000000
X_222_20                      1.000000
X_223_2                       1.000000
X_224_19                      1.000000
X_225_5                       1.000000
X_226_8                       1.000000
X_227_20                      1.000000
X_228_16                      1.000000
X_229_15                      1.000000
X_230_13                      1.000000
X_231_13                      1.000000
X_232_5                       1.000000
X_233_12                      1.000000
X_234_16                      1.000000
X_235_5                       1.000000
X_236_12                      1.000000
X_237_19                      1.000000
X_238_13                      1.000000
X_239_7                       1.000000
X_240_5                       1.000000
X_241_13                      1.000000
X_242_8                       1.000000
X_243_10                      1.000000
X_244_13                      1.000000
X_245_5                       1.000000
X_246_3                       1.000000
X_247_20                      1.000000
X_248_13                      1.000000
X_249_3                       1.000000
X_250_5                       1.000000
X_251_5                       1.000000
X_252_13                      1.000000
X_253_8                       1.000000
X_254_13                      1.000000
X_255_5                       1.000000
X_256_16                      1.000000
X_257_19                      1.000000
X_258_6                       1.000000
X_259_5                       1.000000
X_260_3                       1.000000
X_261_5                       1.000000
X_262_3                       1.000000
X_263_20                      1.000000
X_264_20                      1.000000
X_265_13                      1.000000
X_266_15                      1.000000
X_267_8                       1.000000
X_268_19                      1.000000
X_269_13                      1.000000
X_270_5                       1.000000
X_271_19                      1.000000
X_272_8                       1.000000
X_273_10                      1.000000
X_274_5                       1.000000
X_275_5                       1.000000
X_276_13                      1.000000
X_277_5                       1.000000
X_278_8                       1.000000
X_279_19                      1.000000
X_280_13                      1.000000
X_281_19                      1.000000
X_282_5                       1.000000
X_283_5                       1.000000
X_284_13                      1.000000
X_285_19                      1.000000
X_286_14                      1.000000
X_287_17                      1.000000
X_288_2                       1.000000
X_289_5                       1.000000
X_290_13                      1.000000
X_291_20                      1.000000
X_292_19                      1.000000
X_293_9                       1.000000
X_294_5                       1.000000
X_295_5                       1.000000
X_296_19                      1.000000
X_297_8                       1.000000
X_298_5                       1.000000
X_299_13                      1.000000
X_300_19                      1.000000
X_301_17                      1.000000
X_302_5                       1.000000
X_303_19                      1.000000
X_304_13                      1.000000
X_305_2                       1.000000
X_306_13                      1.000000
X_307_5                       1.000000
X_308_10                      1.000000
X_309_9                       1.000000
X_310_13                      1.000000
X_311_19                      1.000000
X_312_9                       1.000000
X_313_5                       1.000000
X_314_20                      1.000000
X_315_5                       1.000000
X_316_19                      1.000000
X_317_13                      1.000000
X_318_12                      1.000000
X_319_13                      1.000000
X_320_19                      1.000000
X_321_19                      1.000000
X_322_4                       1.000000
X_323_3                       1.000000
X_324_2                       1.000000
X_325_13                      1.000000
X_326_7                       1.000000
X_327_5                       1.000000
X_328_19                      1.000000
X_329_13                      1.000000
X_330_13                      1.000000
X_331_5                       1.000000
X_332_12                      1.000000
X_333_5                       1.000000
X_334_15                      1.000000
X_335_5                       1.000000
X_336_20                      1.000000
X_337_13                      1.000000
X_338_13                      1.000000
X_339_18                      1.000000
X_340_20                      1.000000
X_341_9                       1.000000
X_342_15                      1.000000
X_343_19                      1.000000
X_344_14                      1.000000
X_345_3                       1.000000
X_346_20                      1.000000
X_347_5                       1.000000
X_348_13                      1.000000
X_349_13                      1.000000
X_350_3                       1.000000
X_351_13                      1.000000
X_352_13                      1.000000
X_353_19                      1.000000
X_354_13                      1.000000
X_355_19                      1.000000
X_356_13                      1.000000
X_357_13                      1.000000
X_358_4                       1.000000
X_359_5                       1.000000
X_360_19                      1.000000
X_361_13                      1.000000
X_362_7                       1.000000
X_363_13                      1.000000
X_364_19                      1.000000
X_365_5                       1.000000
X_366_3                       1.000000
X_367_15                      1.000000
X_368_8                       1.000000
X_369_20                      1.000000
X_370_2                       1.000000
X_371_7                       1.000000
X_372_16                      1.000000
X_373_13                      1.000000
X_374_5                       1.000000
X_375_5                       1.000000
X_376_18                      1.000000
X_377_15                      1.000000
X_378_20                      1.000000
X_379_12                      1.000000
X_380_20                      1.000000
X_381_13                      1.000000
X_382_13                      1.000000
X_383_5                       1.000000
X_384_14                      1.000000
X_385_5                       1.000000
X_386_5                       1.000000
X_387_5                       1.000000
X_388_19                      1.000000
X_389_5                       1.000000
X_390_13                      1.000000
X_391_13                      1.000000
X_392_13                      1.000000
X_393_16                      1.000000
X_394_5                       1.000000
X_395_19                      1.000000
X_396_19                      1.000000
X_397_12                      1.000000
X_398_5                       1.000000
X_399_12                      1.000000
X_400_5                       1.000000
X_401_18                      1.000000
X_402_12                      1.000000
X_403_5                       1.000000
X_404_13                      1.000000
X_405_11                      1.000000
X_406_13                      1.000000
X_407_3                       1.000000
X_408_4                       1.000000
X_409_19                      1.000000
X_410_20                      1.000000
X_411_4                       1.000000
X_412_13                      1.000000
X_413_4                       1.000000
X_414_15                      1.000000
X_415_13                      1.000000
X_416_5                       1.000000
X_417_5                       1.000000
X_418_5                       1.000000
X_419_13                      1.000000
X_420_5                       1.000000
X_421_9                       1.000000
X_422_20                      1.000000
X_423_5                       1.000000
X_424_9                       1.000000
X_425_13                      1.000000
X_426_20                      1.000000
X_427_12                      1.000000
X_428_18                      1.000000
X_429_2                       1.000000
X_430_13                      1.000000
X_431_7                       1.000000
X_432_17                      1.000000
X_433_5                       1.000000
X_434_19                      1.000000
X_435_4                       1.000000
X_436_5                       1.000000
X_437_13                      1.000000
X_438_19                      1.000000
X_439_18                      1.000000
X_440_13                      1.000000
X_441_19                      1.000000
X_442_12                      1.000000
X_443_8                       1.000000
X_444_6                       1.000000
X_445_19                      1.000000
X_446_13                      1.000000
X_447_4                       1.000000
X_448_13                      1.000000
X_449_5                       1.000000
X_450_5                       1.000000
X_451_5                       1.000000
X_452_3                       1.000000
X_453_5                       1.000000
X_454_5                       1.000000
X_455_20                      1.000000
X_456_5                       1.000000
X_457_20                      1.000000
X_458_12                      1.000000
X_459_4                       1.000000
X_460_3                       1.000000
X_461_15                      1.000000
X_462_19                      1.000000
X_463_20                      1.000000
X_464_5                       1.000000
X_465_5                       1.000000
X_466_9                       1.000000
X_467_19                      1.000000
X_468_5                       1.000000
X_469_13                      1.000000
X_470_19                      1.000000
X_471_15                      1.000000
X_472_5                       1.000000
X_473_13                      1.000000
X_474_13                      1.000000
X_475_13                      1.000000
X_476_9                       1.000000
X_477_19                      1.000000
X_478_20                      1.000000
X_479_18                      1.000000
X_480_18                      1.000000
X_481_13                      1.000000
X_482_5                       1.000000
X_483_5                       1.000000
X_484_5                       1.000000
X_485_11                      1.000000
X_486_5                       1.000000
X_487_5                       1.000000
X_488_5                       1.000000
X_489_15                      1.000000
X_490_20                      1.000000
X_491_20                      1.000000
X_492_13                      1.000000
X_493_19                      1.000000
X_494_5                       1.000000
X_495_19                      1.000000
X_496_13                      1.000000
X_497_13                      1.000000
X_498_19                      1.000000
X_499_19                      1.000000
X_500_12                      1.000000
All other variables in the range 1-10001 are 0.
